(set-logic UFDT)
(declare-datatypes ((nat 0)) (((zero) (s (s0 nat)))))
(declare-fun add (nat nat) nat)
(non-erasing add 2)
(injective add (true true))
(declare-fun leq (nat nat) Bool)
(assert (forall ((y nat)) (= (add zero y) y)))
(assert (forall ((x nat) (y nat)) (= (add (s x) y) (s (add x y)))))
(assert (forall ((y nat)) (leq zero y)))
(assert (forall ((x nat)) (not (leq (s x) zero))))
(assert (forall ((x nat) (y nat)) (= (leq (s x) (s y)) (leq x y))))
(assert (not (forall ((v0 nat) (v1 nat) (v2 nat) (v3 nat) (v4 nat) (v5 nat) (v6 nat)) (= (s (add (s (add (s (add v0 (s v6))) (s v1))) (s (add (s (add (add (s (s (s v2))) v4) v5)) (s v3))))) (s (s (add (add (add (s (add (add (s v0) (add (s (s (s (s (s (s v5)))))) v2)) v1)) (s v4)) v6) v3)))))))
(check-sat)
